# Solution for model Food Manufacture II
# Objective value = 1.0027870370370366e+05
Food[January] 4.5000000000000028e+02
Food[February] 4.4999999999999994e+02
Food[March] 4.4999999999999994e+02
Food[April] 405
Food[May] 405
Food[June] 4.5000000000000028e+02
Buy[January,VEG1] 1.4210854715202004e-14
Buy[January,VEG2] 0
Buy[January,OIL1] 0
Buy[January,OIL2] 0
Buy[January,OIL3] 0
Buy[February,VEG1] 0
Buy[February,VEG2] 0
Buy[February,OIL1] 0
Buy[February,OIL2] 0
Buy[February,OIL3] 0
Buy[March,VEG1] 1.4210854715202004e-14
Buy[March,VEG2] 0
Buy[March,OIL1] 0
Buy[March,OIL2] 0
Buy[March,OIL3] 730
Buy[April,VEG1] 0
Buy[April,VEG2] 0
Buy[April,OIL1] 4.5474735088646412e-13
Buy[April,OIL2] 0
Buy[April,OIL3] 0
Buy[May,VEG1] 0
Buy[May,VEG2] 0
Buy[May,OIL1] 0
Buy[May,OIL2] 0
Buy[May,OIL3] 4.0000000000000341e+01
Buy[June,VEG1] 4.8037037037037038e+02
Buy[June,VEG2] 6.2962962962962968e+02
Buy[June,OIL1] 0
Buy[June,OIL2] 730
Buy[June,OIL3] 3.5527136788005009e-14
Use[January,VEG1] 8.5185185185185290e+01
Use[January,VEG2] 1.1481481481481467e+02
Use[January,OIL1] 0
Use[January,OIL2] 0
Use[January,OIL3] 2.5000000000000034e+02
Use[February,VEG1] 0
Use[February,VEG2] 1.9999999999999994e+02
Use[February,OIL1] 0
Use[February,OIL2] 40
Use[February,OIL3] 210
Use[March,VEG1] 8.5185185185185176e+01
Use[March,VEG2] 1.1481481481481477e+02
Use[March,OIL1] 0
Use[March,OIL2] 0
Use[March,OIL3] 250
Use[April,VEG1] 1.5499999999999997e+02
Use[April,VEG2] 0
Use[April,OIL1] 0
Use[April,OIL2] 230
Use[April,OIL3] 20
Use[May,VEG1] 1.5499999999999997e+02
Use[May,VEG2] 0
Use[May,OIL1] 0
Use[May,OIL2] 230
Use[May,OIL3] 20
Use[June,VEG1] 0
Use[June,VEG2] 2.0000000000000028e+02
Use[June,OIL1] 0
Use[June,OIL2] 2.2999999999999997e+02
Use[June,OIL3] 2.0000000000000036e+01
Store[January,VEG1] 4.1481481481481472e+02
Store[January,VEG2] 3.8518518518518533e+02
Store[January,OIL1] 500
Store[January,OIL2] 500
Store[January,OIL3] 2.4999999999999966e+02
Store[February,VEG1] 4.1481481481481472e+02
Store[February,VEG2] 1.8518518518518539e+02
Store[February,OIL1] 4.9999999999999955e+02
Store[February,OIL2] 460
Store[February,OIL3] 3.9999999999999659e+01
Store[March,VEG1] 3.2962962962962956e+02
Store[March,VEG2] 7.0370370370370622e+01
Store[March,OIL1] 4.9999999999999955e+02
Store[March,OIL2] 460
Store[March,OIL3] 5.1999999999999966e+02
Store[April,VEG1] 1.7462962962962959e+02
Store[April,VEG2] 7.0370370370370622e+01
Store[April,OIL1] 500
Store[April,OIL2] 230
Store[April,OIL3] 4.9999999999999966e+02
Store[May,VEG1] 1.9629629629629619e+01
Store[May,VEG2] 7.0370370370370622e+01
Store[May,OIL1] 500
Store[May,OIL2] 0
Store[May,OIL3] 520
Store[June,VEG1] 500
Store[June,VEG2] 500
Store[June,OIL1] 500
Store[June,OIL2] 500
Store[June,OIL3] 500
d[January,VEG1] 1
d[January,VEG2] 1
d[January,OIL1] 0
d[January,OIL2] 0
d[January,OIL3] 1
d[February,VEG1] 0
d[February,VEG2] 1
d[February,OIL1] 0
d[February,OIL2] 1
d[February,OIL3] 1
d[March,VEG1] 1
d[March,VEG2] 1
d[March,OIL1] 0
d[March,OIL2] 0
d[March,OIL3] 1
d[April,VEG1] 1
d[April,VEG2] 0
d[April,OIL1] 0
d[April,OIL2] 1
d[April,OIL3] 1
d[May,VEG1] 1
d[May,VEG2] 0
d[May,OIL1] 0
d[May,OIL2] 1
d[May,OIL3] 1
d[June,VEG1] 0
d[June,VEG2] 1
d[June,OIL1] 0
d[June,OIL2] 1
d[June,OIL3] 1
